# Test redundant internal optimization for: antagonist3.mol2
#
! B3LYP
! PrintBasis 6-31G keepdens
%output
 print[P_MOs]1
 end #output
* xyz 0 1
  C1      -0.93272005   -3.48005756   -4.19678331 
  C2      -0.46622859   -2.75716100   -3.07984829 
  C3       0.35723280   -1.63378419   -3.29103982 
  C4       0.71566892   -1.22161177   -4.59436693 
  C5       0.23489148   -1.97051696   -5.65979191 
  C6      -0.58684571   -3.09647583   -5.48627435 
  C7      -0.86304524   -3.20310313   -1.71211230 
  C8      -0.24818069   -2.41443943   -0.61601946 
  C9       0.53012676   -1.32050241   -0.89093085 
  N10      0.83498774   -0.90712023   -2.17341853 
  C11     -0.47538433   -2.81762602    0.77393761 
  N12      0.22941849   -2.04315565    1.76618361 
  N13      0.78381027   -0.77790574    1.50716037 
  C14      1.13719781   -0.45286835    0.19647641 
  O15      1.78666870    0.54139481   -0.09019072 
  O16     -1.10162902   -3.74559228    1.23242063 
  O17     -1.62730595   -4.12646013   -1.54920683 
 Cl18      0.66632195   -1.50240992   -7.26105337 
  C19      1.46174534   -0.11703352    2.68778118 
  C20      0.90814685    1.30355622    2.80325991 
  C21     -0.45909729    1.57486975    2.60439766 
  C22     -0.91232876    2.88702179    2.76418173 
  C23     -0.00948270    3.89187012    3.12105409 
  C24      1.33611518    3.54115501    3.31633506 
  N25      1.79276284    2.27195417    3.16661427 
  C26      2.99522976   -0.17538217    2.56857975 
  C27      3.53569502   -1.59507946    2.65440244 
  H28     -1.57539368   -4.35305961   -4.02105729 
  H29      1.34800601   -0.35062022   -4.76188991 
  H30     -0.94487039   -3.65612059   -6.35072549 
  H31      1.41338424   -0.06474570   -2.30377257 
  H32     -0.00955422   -2.21422621    2.75429345 
  H33      1.15077259   -0.66521771    3.62306405 
  H34     -1.15320358    0.78443657    2.32549961 
  H35     -1.96566876    3.12430260    2.61292358 
  H36     -0.33694435    4.92103856    3.24707978 
  H37      2.08688726    4.28809294    3.60185824 
  H38      3.43994362    0.44913834    3.37728349 
  H39      3.32024250    0.32291813    1.62738820 
  H40      4.62283052   -1.60454290    2.49899408 
  H41      3.35034274   -2.05112056    3.63394979 
  H42      3.09955389   -2.25840982    1.89716298 
 
*
%elprop
Quadrupole True
end
%pal
nprocs                     8
end
%plots
Format CUBE
MO("orcaHOMO-98.cube",98,0);
MO("orcaHOMO-1-97.cube",97,0);                    
MO("orcaHOMO-2-96.cube",96,0);
MO("orcaLUMO-99.cube",99,0);
MO("orcaLUMO+1-100.cube",100,0);                    
MO("orcaLUMO+2-101.cube",101,0);
end