# Test redundant internal optimization for: agonist4.mol2
#
! opt B3LYP
! PrintBasis 6-31G
%output
 print[P_MOs]1
 end #output
* xyz 0 1
  C1       0.30212980   -2.16613130    1.06290921 
  C2       0.27547662   -2.38792518   -0.46260008 
  C3       0.43878840   -1.01316398   -1.13071734 
  C4       0.92656691   -0.04661048   -0.02517511 
  C5       0.40039015   -0.65104275    1.30068324 
  N6       2.40420068    0.13303885    0.02162194 
  C7       0.32204723    1.36350585   -0.22021423 
  O8       1.02569205    2.41545219    0.29836977 
  O9      -0.72911474    1.60882453   -0.75783984 
  H10      1.15765374   -2.69314412    1.51934327 
  H11     -0.60069245   -2.58096647    1.54212949 
  H12     -0.67134953   -2.86174734   -0.77697048 
  H13      1.07909921   -3.07751821   -0.77240259 
  H14     -0.53450809   -0.66106691   -1.53591945 
  H15      1.12283450   -1.04834527   -1.99196871 
  H16     -0.59718745   -0.23358503    1.54311878 
  H17      1.04789021   -0.40229294    2.15860108 
  H18      2.80603380    0.12872397   -0.91445901 
  H19      1.91975158    2.15898247    0.67561637 
  H20      2.84887910   -0.62166609    0.53991978 
 
*
%elprop
Quadrupole True
end
%pal
nprocs 1                 
end