# Test redundant internal optimization for: agonist1.mol2
#
! opt B3LYP
! PrintBasis 6-31G
%output
 print[P_MOs]1
 end #output
* xyz 0 1
  N1      -0.34148337   -1.56874522   -0.67993076 
  C2       0.50965458   -0.91175603    0.37917679 
  C3      -0.06337900    0.59844785    0.43877524 
  C4       2.01053648   -0.88407460    0.06857378 
  O5       2.69786090   -0.35490224    1.19293070 
  O6      -1.09594765    0.68011230   -0.28032405 
  O7       0.55581891    1.39663119    1.11424992 
  H8      -1.14001565   -0.76712603   -0.89966689 
  H9       0.18476830   -1.76615608   -1.53289474 
  H10     -0.77441791   -2.43071187   -0.34691956 
  H11      0.34168179   -1.37227683    1.37905364 
  H12      2.23356387   -0.26810784   -0.82431269 
  H13      2.44317579   -1.89559220   -0.04825202 
  H14      2.31580844    0.55239438    1.43131449 
 
*
%elprop
Quadrupole True
end
%pal
nprocs 1                 
end